decision_x1=[0,2];
decision_x2=[0,2];
decision_x3=[0,2];
decision_x4=[0,2];
decision_x5=[0,2];
random_y1=[0,2];
constraint_x2_x1=[
0,0,6.3|
0,1,1.3|
0,2,0.87|
1,0,6.6|
1,1,6.8|
1,2,1.7|
2,0,7.1|
2,1,3|
2,2,9.4|
];
constraint_x3_x1=[
0,0,1.3|
0,1,9|
0,2,3.3|
1,0,5.1|
1,1,2.7|
1,2,7.4|
2,0,5.4|
2,1,9.7|
2,2,2.3|
];
constraint_x4_x1=[
0,0,4.4|
0,1,6.4|
0,2,4.1|
1,0,0.36|
1,1,5.7|
1,2,3.1|
2,0,4.2|
2,1,3.5|
2,2,9.5|
];
constraint_x4_x3=[
0,0,1.9|
0,1,5.2|
0,2,3.6|
1,0,1.6|
1,1,1.7|
1,2,8.3|
2,0,7|
2,1,3.2|
2,2,3.2|
];
constraint_x5_x2=[
0,0,2.6|
0,1,6.2|
0,2,3.4|
1,0,0.13|
1,1,8.1|
1,2,1.1|
2,0,3.9|
2,1,6|
2,2,8.3|
];
constraint_x1_y1=[
0,0,2.7|
0,1,6.5|
0,2,8.3|
1,0,1.1|
1,1,8.4|
1,2,9.8|
2,0,3.5|
2,1,3.7|
2,2,2.6|
];
initial_distribution_y1=[0.21,0.56,0.23];
transition_y1=[
0.21,0.48,0.32|
0.37,0.086,0.55|
0.32,0.37,0.3|
];
